n1 = 5;
adjacent1 = [| 0, 0, 0, 0, 0
| 0, 0, 0, 0, 1
| 0, 0, 0, 1, 0
| 0, 0, 1, 0, 0
| 0, 1, 0, 0, 0 |];
n2 = 5;
adjacent2 = [| 0, 0, 0, 0, 0
| 0, 0, 0, 0, 1
| 0, 0, 0, 1, 0
| 0, 0, 1, 0, 0
| 0, 1, 0, 0, 0 |];
vertexDeletionCost = [45, 45, 45, 45, 45];
vertexInsertionCost = [45, 45, 45, 45, 45];
vertexSubstitutionCost = [| 12.041594578792296, 90, 90, 90, 90
| 90, 31.756889016400834, 90, 62.94839156007086, 90
| 90, 90, 40.85339643163099, 90, 25.51960031034969
| 90, 28.853076092507017, 90, 46.674404120459855, 90
| 90, 90, 62.659795722616266, 90, 30.23243291566195 |];
edgeDeletionCost = [| 0.0, 0.0, 0.0, 0.0, 0.0
| 0.0, 0.0, 0.0, 0.0, 15.0
| 0.0, 0.0, 0.0, 15.0, 0.0
| 0.0, 0.0, 15.0, 0.0, 0.0
| 0.0, 15.0, 0.0, 0.0, 0.0 |];
edgeInsertionCost = [| 0.0, 0.0, 0.0, 0.0, 0.0
| 0.0, 0.0, 0.0, 0.0, 15.0
| 0.0, 0.0, 0.0, 15.0, 0.0
| 0.0, 0.0, 15.0, 0.0, 0.0
| 0.0, 15.0, 0.0, 0.0, 0.0 |];
edgeSubstitutionCost = array4d(1..n1, 1..n1, 1..n2, 1..n2, [0, 0, 0, 0, 0, 0, 0, 0, 0, 15.0, 0, 0, 0, 15.0, 0, 0, 0, 15.0, 0, 0, 0, 15.0, 0, 0, 0, 0, 0, 0, 0, 0, 0, 0, 0, 0, 15.0, 0, 0, 0, 15.0, 0, 0, 0, 15.0, 0, 0, 0, 15.0, 0, 0, 0, 0, 0, 0, 0, 0, 0, 0, 0, 0, 15.0, 0, 0, 0, 15.0, 0, 0, 0, 15.0, 0, 0, 0, 15.0, 0, 0, 0, 0, 0, 0, 0, 0, 0, 0, 0, 0, 15.0, 0, 0, 0, 15.0, 0, 0, 0, 15.0, 0, 0, 0, 15.0, 0, 0, 0, 0, 0, 0, 0, 0, 0, 0, 0, 0, 15.0, 0, 0, 0, 15.0, 0, 0, 0, 15.0, 0, 0, 0, 15.0, 0, 0, 0, 0, 0, 0, 0, 0, 0, 0, 0, 0, 15.0, 0, 0, 0, 15.0, 0, 0, 0, 15.0, 0, 0, 0, 15.0, 0, 0, 0, 0, 0, 0, 0, 0, 0, 0, 0, 0, 15.0, 0, 0, 0, 15.0, 0, 0, 0, 15.0, 0, 0, 0, 15.0, 0, 0, 0, 0, 0, 0, 0, 0, 0, 0, 0, 0, 15.0, 0, 0, 0, 15.0, 0, 0, 0, 15.0, 0, 0, 0, 15.0, 0, 0, 0, 0, 0, 0, 0, 0, 0, 0, 0, 0, 15.0, 0, 0, 0, 15.0, 0, 0, 0, 15.0, 0, 0, 0, 15.0, 0, 0, 0, 15.0, 15.0, 15.0, 15.0, 15.0, 15.0, 15.0, 15.0, 15.0, 0.0, 15.0, 15.0, 15.0, 0.0, 15.0, 15.0, 15.0, 0.0, 15.0, 15.0, 15.0, 0.0, 15.0, 15.0, 15.0, 0, 0, 0, 0, 0, 0, 0, 0, 0, 15.0, 0, 0, 0, 15.0, 0, 0, 0, 15.0, 0, 0, 0, 15.0, 0, 0, 0, 0, 0, 0, 0, 0, 0, 0, 0, 0, 15.0, 0, 0, 0, 15.0, 0, 0, 0, 15.0, 0, 0, 0, 15.0, 0, 0, 0, 0, 0, 0, 0, 0, 0, 0, 0, 0, 15.0, 0, 0, 0, 15.0, 0, 0, 0, 15.0, 0, 0, 0, 15.0, 0, 0, 0, 15.0, 15.0, 15.0, 15.0, 15.0, 15.0, 15.0, 15.0, 15.0, 0.0, 15.0, 15.0, 15.0, 0.0, 15.0, 15.0, 15.0, 0.0, 15.0, 15.0, 15.0, 0.0, 15.0, 15.0, 15.0, 0, 0, 0, 0, 0, 0, 0, 0, 0, 15.0, 0, 0, 0, 15.0, 0, 0, 0, 15.0, 0, 0, 0, 15.0, 0, 0, 0, 0, 0, 0, 0, 0, 0, 0, 0, 0, 15.0, 0, 0, 0, 15.0, 0, 0, 0, 15.0, 0, 0, 0, 15.0, 0, 0, 0, 0, 0, 0, 0, 0, 0, 0, 0, 0, 15.0, 0, 0, 0, 15.0, 0, 0, 0, 15.0, 0, 0, 0, 15.0, 0, 0, 0, 15.0, 15.0, 15.0, 15.0, 15.0, 15.0, 15.0, 15.0, 15.0, 0.0, 15.0, 15.0, 15.0, 0.0, 15.0, 15.0, 15.0, 0.0, 15.0, 15.0, 15.0, 0.0, 15.0, 15.0, 15.0, 0, 0, 0, 0, 0, 0, 0, 0, 0, 15.0, 0, 0, 0, 15.0, 0, 0, 0, 15.0, 0, 0, 0, 15.0, 0, 0, 0, 0, 0, 0, 0, 0, 0, 0, 0, 0, 15.0, 0, 0, 0, 15.0, 0, 0, 0, 15.0, 0, 0, 0, 15.0, 0, 0, 0, 0, 0, 0, 0, 0, 0, 0, 0, 0, 15.0, 0, 0, 0, 15.0, 0, 0, 0, 15.0, 0, 0, 0, 15.0, 0, 0, 0, 15.0, 15.0, 15.0, 15.0, 15.0, 15.0, 15.0, 15.0, 15.0, 0.0, 15.0, 15.0, 15.0, 0.0, 15.0, 15.0, 15.0, 0.0, 15.0, 15.0, 15.0, 0.0, 15.0, 15.0, 15.0, 0, 0, 0, 0, 0, 0, 0, 0, 0, 15.0, 0, 0, 0, 15.0, 0, 0, 0, 15.0, 0, 0, 0, 15.0, 0, 0, 0, 0, 0, 0, 0, 0, 0, 0, 0, 0, 15.0, 0, 0, 0, 15.0, 0, 0, 0, 15.0, 0, 0, 0, 15.0, 0, 0, 0, 0, 0, 0, 0, 0, 0, 0, 0, 0, 15.0, 0, 0, 0, 15.0, 0, 0, 0, 15.0, 0, 0, 0, 15.0, 0, 0, 0]);
